PROBLEM NAME: 	berlin52-TTP_trivialized
KNAPSACK DATA TYPE: bounded strongly corr
DIMENSION:	3
NUMBER OF ITEMS: 	3
CAPACITY OF KNAPSACK: 	4
MIN SPEED: 	0.1
MAX SPEED: 	1
RENTING RATIO: 	0.31
EDGE_WEIGHT_TYPE:	CEIL_2D
NODE_COORD_SECTION	(INDEX, X, Y): 
1	0.0	0.0
2	0.0	3.0
3	4.0	0.0
ITEMS SECTION	(INDEX, PROFIT, WEIGHT, ASSIGNED NODE NUMBER): 
1	100	1	3
2	90	2	1
3	10	1	2